(declare-sort |c#ptr| 1)
(declare-sort |c#heap| 0)
(declare-var |c#heap| |c#heap|)
(declare-fun |c#bitxor| (Int Int) Int)
(declare-fun |c#bitand| (Int Int) Int)
(declare-fun |c#bitor| (Int Int) Int)
(define-proc
  main
  ()
  ((|c#result| Int))
  ((x Int))
  (sequence
    (while
      (< x 268435455)
      (assign ((x (+ x 1)))))
    (assert (<= 268435455 x))))
